\ENCODING=ISO-8859-1
\Problem name: IloCplex

Minimize
 obj1: 302640 X_(V0)(0)(1)#0 + 909744 X_(V0)(0)(2)#1 + 302640 X_(V1)(0)(1)#2
       + 909744 X_(V1)(0)(2)#3 + 302162 X_(V0)(1)(0)#4 + 909988 X_(V0)(2)(0)#5
       + 302162 X_(V1)(1)(0)#6 + 909988 X_(V1)(2)(0)#7
       + 1232872 X_(V0)(1)(2)#10 + 1232872 X_(V1)(1)(2)#11
       + 1204670 X_(V0)(2)(1)#12 + 1204670 X_(V1)(2)(1)#13
Subject To
 _Entrada_#0:        X_(V0)(0)(1)#0 + X_(V0)(0)(2)#1 + X_(V1)(0)(1)#2
                     + X_(V1)(0)(2)#3  = 2
 Voltar_a_Entrada#1: X_(V0)(1)(0)#4 + X_(V0)(2)(0)#5 + X_(V1)(1)(0)#6
                     + X_(V1)(2)(0)#7  = 2
 _Entradas_node1#2:  X_(V0)(1)(1)#8 + X_(V1)(1)(1)#9 + X_(V0)(1)(2)#10
                     + X_(V1)(1)(2)#11  = 1
 _Entradas_node2#3:  X_(V0)(2)(1)#12 + X_(V1)(2)(1)#13 + X_(V0)(2)(2)#14
                     + X_(V1)(2)(2)#15  = 1
 Saidas_node1#4:     X_(V0)(1)(1)#8 + X_(V1)(1)(1)#9 + X_(V0)(2)(1)#12
                     + X_(V1)(2)(1)#13  = 1
 Saidas_node2#5:     X_(V0)(1)(2)#10 + X_(V1)(1)(2)#11 + X_(V0)(2)(2)#14
                     + X_(V1)(2)(2)#15  = 1
 c7#6:               X_(V0)(1)(1)#8 + X_(V1)(1)(1)#9 + X_(V0)(2)(2)#14
                     + X_(V1)(2)(2)#15 + X_(V0)(0)(0)#16 + X_(V1)(0)(0)#17 <= 0
 q1:  [ X_(V0)(0)(1)#0 * X_(V0)(1)(0)#4 ] <= 0
 q2:  [ X_(V1)(0)(1)#2 * X_(V1)(1)(0)#6 ] <= 0
 q3:  [ X_(V0)(0)(2)#1 * X_(V0)(2)(0)#5 ] <= 0
 q4:  [ X_(V1)(0)(2)#3 * X_(V1)(2)(0)#7 ] <= 0
 q5:  [ X_(V0)(1)(1)#8 ^2 ] <= 0
 q6:  [ X_(V1)(1)(1)#9 ^2 ] <= 0
 q7:  [ X_(V0)(1)(2)#10 * X_(V0)(2)(1)#12 ] <= 0
 q8:  [ X_(V1)(1)(2)#11 * X_(V1)(2)(1)#13 ] <= 0
 q9:  [ X_(V0)(1)(2)#10 * X_(V0)(2)(1)#12 ] <= 0
 q10: [ X_(V1)(1)(2)#11 * X_(V1)(2)(1)#13 ] <= 0
 q11: [ X_(V0)(2)(2)#14 ^2 ] <= 0
 q12: [ X_(V1)(2)(2)#15 ^2 ] <= 0
Bounds
 0 <= X_(V0)(0)(1)#0 <= 1
 0 <= X_(V0)(0)(2)#1 <= 1
 0 <= X_(V1)(0)(1)#2 <= 1
 0 <= X_(V1)(0)(2)#3 <= 1
 0 <= X_(V0)(1)(0)#4 <= 1
 0 <= X_(V0)(2)(0)#5 <= 1
 0 <= X_(V1)(1)(0)#6 <= 1
 0 <= X_(V1)(2)(0)#7 <= 1
 0 <= X_(V0)(1)(1)#8 <= 1
 0 <= X_(V1)(1)(1)#9 <= 1
 0 <= X_(V0)(1)(2)#10 <= 1
 0 <= X_(V1)(1)(2)#11 <= 1
 0 <= X_(V0)(2)(1)#12 <= 1
 0 <= X_(V1)(2)(1)#13 <= 1
 0 <= X_(V0)(2)(2)#14 <= 1
 0 <= X_(V1)(2)(2)#15 <= 1
 0 <= X_(V0)(0)(0)#16 <= 1
 0 <= X_(V1)(0)(0)#17 <= 1
Binaries
 X_(V0)(0)(1)#0  X_(V0)(0)(2)#1  X_(V1)(0)(1)#2  X_(V1)(0)(2)#3 
 X_(V0)(1)(0)#4  X_(V0)(2)(0)#5  X_(V1)(1)(0)#6  X_(V1)(2)(0)#7 
 X_(V0)(1)(1)#8  X_(V1)(1)(1)#9  X_(V0)(1)(2)#10  X_(V1)(1)(2)#11 
 X_(V0)(2)(1)#12  X_(V1)(2)(1)#13  X_(V0)(2)(2)#14  X_(V1)(2)(2)#15 
 X_(V0)(0)(0)#16  X_(V1)(0)(0)#17 
End
